% clingo version 5.3.0
% Reading from ...rk_instances/benchmark_instance_5-3.lp ...
% Solving...
% Answer: 4
ANSWER
u_piece(3). u_piece(4). u_piece(5). l_piece(1,2,6). l_piece(11,12,16). l_piece(22,21,17). num_u_pieces(3). num_l_pieces(3).
COST 3
OPTIMUM
% 
% Models         : 4
%   Optimum      : yes
% Optimization   : 3
% Calls          : 1
% Time           : 0.009s (Solving: 0.00s 1st Model: 0.00s Unsat: 0.00s)
% CPU Time       : 0.009s
